# 25509
param k := 6;
param n := 50;
param s := 1;
set E :=  (0,3) (0,11) (0,18) (1,8) (1,22) (1,28) (2,19) (2,32) (2,42) (3,16) (3,46) (4,6) (4,8) (4,35) (4,38) (4,44) (5,7) (7,16) (7,36) (7,48) (8,15) (8,17) (8,49) (9,28) (9,29) (9,39) (10,23) (10,44) (11,43) (12,32) (13,18) (13,21) (13,22) (14,16) (14,35) (16,19) (16,40) (17,22) (17,43) (19,27) (20,34) (20,44) (21,40) (22,27) (22,40) (23,34) (23,43) (24,30) (24,41) (25,29) (26,38) (26,41) (27,29) (27,40) (28,43) (28,45) (29,30) (30,37) (31,48) (32,33) (32,47) (44,47);